 NOTE: Siesta V5 introduces some new defaults for basis-set generation
 NOTE: which might lead to slightly different numerical results.
 NOTE: Please see the manual for full details and compatibility measures.

reinit: Reading from standard input
reinit: Dumping input in INPUT_TMP.86517
************************** Dump of input data file ****************************
SystemName          NbFeTe2 Bulk
SystemLabel         NbFeTe2
NumberOfAtoms       16
NumberOfSpecies     3
LatticeConstant 1 Ang
%block LatticeVectors
        6.414181   -0.000002   -0.000000
       -0.000003    7.794341    0.000001
       -0.000001    0.000001    8.237897
%endblock LatticeVectors
%block ChemicalSpeciesLabel
  1   41  Nb /work/e89/e89/shreyas/psml_files/Nb.psml
  2   26  Fe /work/e89/e89/shreyas/psml_files/Fe.psml
  3   52  Te /work/e89/e89/shreyas/psml_files/Te.psml
%endblock ChemicalSpeciesLabel
AtomicCoordinatesFormat Fractional
%block AtomicCoordinatesAndAtomicSpecies
    0.50000011    0.50000015    0.29745564   1
   -0.00000028    0.50000007    0.79745645   1
   -0.00000012    0.49999994    0.20254508   1
    0.50000019    0.49999995    0.70254276   1
    0.13131144    0.61388187    0.50000040   2
    0.63131160    0.38611829   -0.00000037   2
    0.86868862    0.38611821    0.50000004   2
    0.36868806    0.61388182    0.00000012   2
    0.75000030    0.19069662    0.74999973   3
    0.23572465    0.27566215    0.00000014   3
    0.76427519    0.72433796    0.00000023   3
    0.24999981    0.80930262    0.74999977   3
    0.73572496    0.72433734    0.49999976   3
    0.26427509    0.27566287    0.49999987   3
    0.24999952    0.80930378    0.25000031   3
    0.75000004    0.19069576    0.25000028   3
%endblock AtomicCoordinatesAndAtomicSpecies
XC.functional   GGA
XC.authors      PBE
Spin            spin-orbit
Charge.Mulliken end
%block DM.InitSpin
   5  +
   6  +
   7  +
   8  +
%endblock DM.InitSpin
SCF.Mix                 Hamiltonian
SCF.Mixer.Method        Pulay
SCF.Mixer.History       10
SCF.Mixer.Weight        0.1
SCF.Mixer.Kick          50
PAO.BasisSize           DZP
PAO.EnergyShift         50 meV
DM.UseSaveDM           	T
SCF.H.Tolerance         1e-4 eV
SCF.DM.Tolerace         1e-5
%block DFTU.proj
Fe   1               # number of shells of projectors
n=3    2             #  n, l
  4.5  0.9     # U(eV), J(eV)
  0.0  0.0     # rc, \omega (if zero default values are taken)
%endblock DFTU.proj
# Real space grid...
MeshCutoff           150 Ry
%block kgrid_Monkhorst_Pack
  10	0	0    0.0
  0	10	0    0.0
  0	0	10    0.0
%endblock kgrid_Monkhorst_Pack
************************** End of input data file *****************************

reinit: -----------------------------------------------------------------------
reinit: System Name: NbFeTe2 Bulk
reinit: -----------------------------------------------------------------------
reinit: System Label: NbFeTe2
reinit: -----------------------------------------------------------------------

NOTE on units for spin output:
{S} is the spin magnetic moment, in units of the Bohr magneton,
assuming a g-factor for the electron spin of exactly 2.
The spin magnetic moment is then numerically equal to the charge inbalance,
in units of electrons, between the spin-up and -down channels.

initatom: Reading input for the pseudopotentials and atomic orbitals ----------
Species number:   1 Atomic number:   41 Label: Nb
Species number:   2 Atomic number:   26 Label: Fe
Species number:   3 Atomic number:   52 Label: Te

Ground state valence configuration (from tables):   5s01  5p00  4d04  4f00
Ground state valence configuration (from tables):   4s02  4p00  3d06  4f00
Ground state valence configuration (from tables):   5s02  5p04  5d00  4f00

---- Processing specs for species: Nb
Reading pseudopotential information in PSML from:
  /work/e89/e89/shreyas/psml_files/Nb.psml
PSML file version: 1.1
GGA--PBE XC_GGA_X_PBE--XC_GGA_C_PBE pb
PSML uuid: 548394d0-44bc-11e8-4eec-b97effbd72e7
Semicore shell(s) with  8 electrons included in the valence for Nb

---- Processing specs for species: Fe
Reading pseudopotential information in PSML from:
  /work/e89/e89/shreyas/psml_files/Fe.psml
PSML file version: 1.1
GGA--PBE XC_GGA_X_PBE--XC_GGA_C_PBE pb
PSML uuid: 89456970-44bf-11e8-4d23-a6a6edf19e30
Semicore shell(s) with  8 electrons included in the valence for Fe

---- Processing specs for species: Te
Reading pseudopotential information in PSML from:
  /work/e89/e89/shreyas/psml_files/Te.psml
PSML file version: 1.1
GGA--PBE XC_GGA_X_PBE--XC_GGA_C_PBE pb
PSML uuid: edaa6890-471a-11e8-6356-ec79ff4cd4ef
Semicore shell(s) with 10 electrons included in the valence for Te

---- Pseudopotential check for Nb

Pseudopotential generated from a fully relativistic atomic calculation
There are spin-orbit semi-local pseudopotentials available

Pseudized shells:
4s( 2.00) rc: 1.51
4p( 6.00) rc: 1.40
4d( 4.00) rc: 1.40
Valence configuration for ps generation: 4s:4p:4d:5s: Total charge:  13.000000
Semicore shell(s): 4s 4p
Fallback to non-perturbative polarization scheme for Nb
Please see the manual if this is not desired in principle

[...]

Pseudized shells:
3s( 2.00) rc: 1.26
3p( 6.00) rc: 1.21
3d( 6.00) rc: 1.57
Valence configuration for ps generation: 3s:3p:3d:4s: Total charge:  16.000000
Semicore shell(s): 3s 3p
Fallback to non-perturbative polarization scheme for Fe
Please see the manual if this is not desired in principle

---- Pseudopotential check for Te

Pseudopotential generated from a fully relativistic atomic calculation
There are spin-orbit semi-local pseudopotentials available

Pseudized shells:
5s( 2.00) rc: 2.27
5p( 4.00) rc: 1.92
4d(10.00) rc: 1.81
Valence configuration for ps generation: 4d:5s:5p: Total charge:  16.000000
Semicore shell(s): 4d
Fallback to non-perturbative polarization scheme for Te
Please see the manual if this is not desired in principle
For Nb, standard SIESTA heuristics set lmxkb to 3
 (one more than the basis l, including polarization orbitals).
Use PS.lmax or PS.KBprojectors blocks to override.
For Fe, standard SIESTA heuristics set lmxkb to 3
 (one more than the basis l, including polarization orbitals).
Use PS.lmax or PS.KBprojectors blocks to override.
For Te, standard SIESTA heuristics set lmxkb to 3
 (one more than the basis l, including polarization orbitals).
Use PS.lmax or PS.KBprojectors blocks to override.
/work/e89/e89/shreyas/psml_files/Nb.psml pseudopotential only contains V_ls up to l=2 -- lmxkb reset.
/work/e89/e89/shreyas/psml_files/Fe.psml pseudopotential only contains V_ls up to l=2 -- lmxkb reset.
/work/e89/e89/shreyas/psml_files/Te.psml pseudopotential only contains V_ls up to l=2 -- lmxkb reset.

<basis_specs>
Nb                   Z=  41    Mass=  92.906        Charge= 0.17977+309
Lmxo=2 Lmxkb= 2    BasisType=split      Semic=T
L=0  Nsemic=1  Cnfigmx=5
          i=1  nzeta=1  polorb=0  (4s)  (semicore shell)
            splnorm:   0.15000
               vcte:    40.000
               rinn:  -0.90000
               qcoe:    0.0000
               qyuk:    0.0000
               qwid:   0.10000E-01
                rcs:    0.0000
            lambdas:    1.0000
          i=2  nzeta=2  polorb=0  (5s)  (to be polarized non-perturbatively)
            splnorm:   0.15000
               vcte:    40.000
               rinn:  -0.90000
               qcoe:    0.0000
               qyuk:    0.0000
               qwid:   0.10000E-01
                rcs:    0.0000      0.0000
            lambdas:    1.0000      1.0000
L=1  Nsemic=1  Cnfigmx=5
          i=1  nzeta=1  polorb=0  (4p)  (semicore shell)
            splnorm:   0.15000
               vcte:    40.000
               rinn:  -0.90000
               qcoe:    0.0000
               qyuk:    0.0000
               qwid:   0.10000E-01
                rcs:    0.0000
            lambdas:    1.0000
          i=2  nzeta=1  polorb=0  (5p)  (non-perturbative polarization shell)
            splnorm:   0.15000
               vcte:    40.000
               rinn:  -0.90000
               qcoe:   0.11198-314
               qyuk:   0.49407-323
               qwid:   0.11300-309
                rcs:    0.0000
            lambdas:    1.0000
L=2  Nsemic=0  Cnfigmx=4
          i=1  nzeta=2  polorb=0  (4d)
            splnorm:   0.15000
               vcte:    40.000
               rinn:  -0.90000
               qcoe:    0.0000
               qyuk:    0.0000
               qwid:   0.10000E-01
                rcs:    0.0000      0.0000
            lambdas:    1.0000      1.0000
L=0  Nkbl=2  erefs: 0.17977+309 0.17977+309
L=1  Nkbl=2  erefs: 0.17977+309 0.17977+309
L=2  Nkbl=1  erefs: 0.17977+309
</basis_specs>

Using PAO.SplitTailNorm
atom: Called for Nb                    (Z =  41)
Maximum radius (at nrval) set to   50.00000 8518

read_vps: Pseudopotential generation method:
read_vps: ONCVPSP-3.Hamann's oncvpsp
Valence charge in pseudo generation:   13.00000

read_vps: Pseudopotential includes a core correction:
read_vps: Pseudo-core for xc-correction

xc_check: Exchange-correlation functional:
xc_check: GGA Perdew, Burke & Ernzerhof 1996
Got Vlocal (oncv-fit) from psml data
Choosing vlocal chloc cutoff:  6.020499
qtot up to nchloc:   12.99995086
atom: Maximum radius for chlocal:    6.02050
atom: Maximum radius for r*vlocal+2*Zval:    6.02050
Reading KB projs from Nb psml data
Using lj projectors in PSML file

PSML: Kleinman-Bylander projectors:
   l= 0   rc=  1.526996   Ekb=  2.679097
   l= 0   rc=  1.526996   Ekb= 25.890388
j- l= 1   rc=  1.421653   Ekb=  1.692988
j+ l= 1   rc=  1.421653   Ekb=  1.492224
j- l= 1   rc=  1.421653   Ekb= 15.596372
j+ l= 1   rc=  1.421653   Ekb= 15.467537
j- l= 2   rc=  1.421653   Ekb=  2.142057
j+ l= 2   rc=  1.421653   Ekb=  2.237418
j- l= 2   rc=  1.421653   Ekb=  6.646060
j+ l= 2   rc=  1.421653   Ekb=  7.445704

PSML: Total number of  Kleinman-Bylander projectors:  34
atom: -------------------------------------------------------------------------

atom: SANKEY-TYPE ORBITALS:
atom: Selected multiple-zeta basis: split

SPLIT: Orbitals with angular momentum L= 0

SPLIT: Basis orbitals for state 4s

SPLIT: PAO cut-off radius determined from an
SPLIT: energy shift=  0.003675 Ry
Split based on tail norm

   izeta = 1
                 lambda =    1.000000
                     rc =    3.312873
                 energy =   -4.284737
                kinetic =    2.120952
    potential(screened) =   -6.405690
       potential(ionic) =  -21.112880

[...]

   izeta = 2
                 rmatch =    6.431940
              splitnorm =    0.150000
                 energy =   -0.189755
                kinetic =    1.098514
    potential(screened) =   -1.288269
       potential(ionic) =  -10.061438

[...]

SPLIT: Basis orbitals for state 4p

[...]

SPLIT: Basis orbitals for state 5p
SPLIT: Non-perturbative polarization orbs for state 5s
SPLIT: rc(1st zeta) (re)set to: 8.9864 (expansion factor: 1.0000)
Split based on tail norm

[...]

SPLIT: Basis orbitals for state 4d

[...]

   izeta = 2
                 rmatch =    4.635179
              splitnorm =    0.150000
                 energy =   -0.154431
                kinetic =    3.938683
    potential(screened) =   -4.093114
       potential(ionic) =  -16.443762
[...]

outcell: Cell vector modules (Ang)   :    6.414181    7.794341    8.237897
outcell: Cell angles (23,13,12) (deg):     90.0000     90.0000     90.0000
outcell: Cell volume (Ang**3)        :    411.8480
<dSpData1D:S at geom step 0
  <sparsity:sparsity for geom step 0
    nrows_g=296 nrows=17 sparsity=.2308 nnzs=20221, refcount: 9>
  <dData1D:(new from dSpData1D) n=20221, refcount: 1>
refcount: 1>
new_DM -- step:     1
Initializing Density Matrix...

Attempting to read DM from file... Failed...
DM filled with atomic data (user-defined):
<dSpData2D:DM initialized from atoms
  <sparsity:sparsity for geom step 0
    nrows_g=296 nrows=17 sparsity=.2308 nnzs=20221, refcount: 10>
  <dData2D:DM n=20221 m=8, refcount: 1>
refcount: 1>

InitMesh: MESH = 48 x 60 x 64 = 184320
InitMesh: Mesh cutoff (required, used) =   150.000   154.775 Ry
New grid distribution [1]: sub = 2
New grid distribution [2]: sub = 2
New grid distribution [3]: sub = 2
Setting up quadratic distribution...

stepf: Fermi-Dirac step function

siesta: Program's energy decomposition (eV):
siesta: Ebs     =     -8312.119288
siesta: Eions   =     56011.441932
siesta: Ena     =      6982.284237
siesta: Ekin    =     20174.693717
siesta: Enl(+so)=     -6216.057121
siesta: Eso(nil)=         0.000000
siesta: Edftu   =         9.019860
siesta: DEna    =       479.537492
siesta: DUscf   =        30.720089
siesta: DUext   =         0.000000
siesta: Ex      =     -8143.585726
siesta: Ec      =      -505.126419
siesta: Exc     =     -8648.712145
siesta: EbV     =         0.000000
siesta: eta*DQ  =         0.000000
siesta: Emadel  =         0.000000
siesta: Emeta   =         0.000000
siesta: Emolmec =         0.000000
siesta: Ekinion =         0.000000
siesta: Eharris =    -43113.412953
siesta: Etot    =    -43199.955803
siesta: FreeEng =    -43199.979143

        iscf     Eharris(eV)        E_KS(eV)     FreeEng(eV)     dDmax    Ef(eV) dHmax(eV)
   scf:    1   -43113.412953   -43199.955803   -43199.979143  0.831443 -3.097332 13.827760
     spin moment: {S} , |S| = {   -0.00000   -0.00000   13.08586 }    13.08586
   scf:    2   -43222.835157   -43216.327895   -43216.358784  0.237991 -3.681152  5.658942
     spin moment: {S} , |S| = {    0.00000   -0.00000   11.47302 }    11.47302
   scf:    3   -43220.196172   -43218.783340   -43218.813899  0.049474 -3.880223  2.394363
     spin moment: {S} , |S| = {    0.00000   -0.00000   11.49521 }    11.49521
   scf:    4   -43220.191079   -43219.541780   -43219.570938  0.048321 -3.977139  1.517230
     spin moment: {S} , |S| = {    0.00000   -0.00000   11.25639 }    11.25639
   scf:    5   -43221.218932   -43220.539521   -43220.563728  0.118451 -4.120546  0.548156
     spin moment: {S} , |S| = {    0.00000   -0.00000   10.79558 }    10.79558
   scf:    6   -43220.640376   -43220.647160   -43220.665577  0.066517 -4.215414  1.420818
     spin moment: {S} , |S| = {    0.00000   -0.00000   10.18388 }    10.18388
   scf:    7   -43220.848717   -43220.761081   -43220.779135  0.007899 -4.190192  0.771764
     spin moment: {S} , |S| = {    0.00000   -0.00000   10.17832 }    10.17832
   scf:    8   -43220.848804   -43220.807569   -43220.825267  0.007242 -4.181794  0.430749
     spin moment: {S} , |S| = {    0.00000   -0.00000   10.14228 }    10.14228
   scf:    9   -43220.973031   -43220.890995   -43220.908398  0.032138 -4.176265  0.617542
     spin moment: {S} , |S| = {    0.00000   -0.00000    9.90826 }     9.90826
   scf:   10   -43220.944582   -43220.938972   -43220.957650  0.034647 -4.189159  0.321672
     spin moment: {S} , |S| = {    0.00000   -0.00000    9.72808 }     9.72808
   scf:   11   -43221.058875   -43221.002843   -43221.021068  0.032359 -4.223897  0.421123
     spin moment: {S} , |S| = {    0.00000   -0.00000    9.56868 }     9.56868
   scf:   12   -43220.969502   -43221.003892   -43221.021488  0.022707 -4.197704  0.527671
     spin moment: {S} , |S| = {    0.00000   -0.00000    9.45110 }     9.45110
   scf:   13   -43221.303226   -43221.137159   -43221.153632  0.055310 -4.228327  0.256351
     spin moment: {S} , |S| = {    0.00000   -0.00000    9.37294 }     9.37294
   scf:   14   -43221.209583   -43221.167488   -43221.183855  0.027217 -4.235118  0.140004
     spin moment: {S} , |S| = {    0.00000   -0.00000    9.31160 }     9.31160
   scf:   15   -43221.163774   -43221.166713   -43221.183108  0.004333 -4.235612  0.157249
     spin moment: {S} , |S| = {    0.00000   -0.00000    9.32728 }     9.32728
   scf:   16   -43221.213234   -43221.185361   -43221.201599  0.024907 -4.232147  0.096801
     spin moment: {S} , |S| = {    0.00000   -0.00000    9.34422 }     9.34422
   scf:   17   -43221.195049   -43221.189723   -43221.205891  0.009517 -4.232150  0.077502
     spin moment: {S} , |S| = {    0.00000   -0.00000    9.35191 }     9.35191
   scf:   18   -43221.200575   -43221.195089   -43221.211173  0.011700 -4.232239  0.059447
     spin moment: {S} , |S| = {    0.00000   -0.00000    9.35802 }     9.35802
   scf:   19   -43221.198856   -43221.197209   -43221.213260  0.005274 -4.232427  0.046723
     spin moment: {S} , |S| = {    0.00000   -0.00000    9.37231 }     9.37231
   scf:   20   -43221.204316   -43221.199972   -43221.215950  0.012542 -4.232077  0.013451
     spin moment: {S} , |S| = {   -0.00000   -0.00000    9.40236 }     9.40236
   scf:   21   -43221.200206   -43221.200084   -43221.216054  0.000593 -4.232369  0.009708
     spin moment: {S} , |S| = {   -0.00000   -0.00000    9.40354 }     9.40354
   scf:   22   -43221.200201   -43221.200194   -43221.216150  0.000935 -4.232882  0.012823
     spin moment: {S} , |S| = {   -0.00000   -0.00000    9.40597 }     9.40597
   scf:   23   -43221.200201   -43221.200475   -43221.216416  0.005206 -4.232472  0.015439
     spin moment: {S} , |S| = {   -0.00000   -0.00000    9.41501 }     9.41501
   scf:   24   -43221.200870   -43221.200289   -43221.216228  0.002135 -4.232509  0.007038
     spin moment: {S} , |S| = {   -0.00000   -0.00000    9.41502 }     9.41502
   scf:   25   -43221.200335   -43221.200335   -43221.216262  0.000854 -4.232732  0.004730
     spin moment: {S} , |S| = {   -0.00000   -0.00000    9.41969 }     9.41969
   scf:   26   -43221.200270   -43221.200407   -43221.216325  0.000897 -4.232834  0.004533
     spin moment: {S} , |S| = {   -0.00000   -0.00000    9.42345 }     9.42345
   scf:   27   -43221.200382   -43221.200454   -43221.216366  0.000482 -4.232776  0.003048
     spin moment: {S} , |S| = {   -0.00000   -0.00000    9.42513 }     9.42513
   scf:   28   -43221.200450   -43221.200493   -43221.216401  0.000275 -4.232753  0.002526
     spin moment: {S} , |S| = {   -0.00000   -0.00000    9.42530 }     9.42530
   scf:   29   -43221.200537   -43221.200535   -43221.216439  0.000340 -4.232827  0.002208
     spin moment: {S} , |S| = {   -0.00000   -0.00000    9.42384 }     9.42384
   scf:   30   -43221.200540   -43221.200546   -43221.216449  0.000161 -4.232821  0.001888
     spin moment: {S} , |S| = {   -0.00000   -0.00000    9.42415 }     9.42415
   scf:   31   -43221.200541   -43221.200560   -43221.216460  0.000264 -4.232795  0.001564
     spin moment: {S} , |S| = {   -0.00000   -0.00000    9.42471 }     9.42471
   scf:   32   -43221.200578   -43221.200579   -43221.216478  0.000277 -4.232742  0.001238
     spin moment: {S} , |S| = {   -0.00000   -0.00000    9.42486 }     9.42486
   scf:   33   -43221.200604   -43221.200592   -43221.216489  0.000259 -4.232715  0.000895
     spin moment: {S} , |S| = {   -0.00000   -0.00000    9.42458 }     9.42458
   scf:   34   -43221.200616   -43221.200590   -43221.216485  0.000297 -4.232729  0.000650
     spin moment: {S} , |S| = {   -0.00000   -0.00000    9.42418 }     9.42418
   scf:   35   -43221.200596   -43221.200589   -43221.216484  0.000075 -4.232742  0.000562
     spin moment: {S} , |S| = {   -0.00000   -0.00000    9.42415 }     9.42415
   scf:   36   -43221.200601   -43221.200599   -43221.216492  0.000146 -4.232765  0.000479
     spin moment: {S} , |S| = {   -0.00000   -0.00000    9.42434 }     9.42434
   scf:   37   -43221.200612   -43221.200611   -43221.216502  0.000187 -4.232785  0.000424
     spin moment: {S} , |S| = {   -0.00000   -0.00000    9.42447 }     9.42447
   scf:   38   -43221.200612   -43221.200615   -43221.216505  0.000057 -4.232785  0.000418
     spin moment: {S} , |S| = {   -0.00000   -0.00000    9.42456 }     9.42456
   scf:   39   -43221.200629   -43221.200633   -43221.216522  0.000232 -4.232782  0.000278
     spin moment: {S} , |S| = {    0.00000   -0.00000    9.42468 }     9.42468
   scf:   40   -43221.200639   -43221.200638   -43221.216526  0.000054 -4.232780  0.000221
     spin moment: {S} , |S| = {    0.00000   -0.00000    9.42467 }     9.42467
   scf:   41   -43221.200647   -43221.200641   -43221.216529  0.000052 -4.232780  0.000138
     spin moment: {S} , |S| = {    0.00000   -0.00000    9.42452 }     9.42452
   scf:   42   -43221.200647   -43221.200644   -43221.216531  0.000042 -4.232777  0.000102
     spin moment: {S} , |S| = {    0.00000   -0.00000    9.42443 }     9.42443
   scf:   43   -43221.200644   -43221.200644   -43221.216531  0.000016 -4.232776  0.000092
     spin moment: {S} , |S| = {    0.00000   -0.00000    9.42445 }     9.42445

SCF Convergence by DM+H criterion
max |DM_out - DM_in|         :     0.0000163416
max |H_out - H_in|      (eV) :     0.0000922282
SCF cycle converged after 43 iterations

Using DM_out to compute the final energy and forces

siesta: E_KS(eV) =           -43221.2006

siesta: E_KS - E_eggbox =    -43221.2006

siesta: Atomic forces (eV/Ang):
   Tot   -0.000002    0.000007   -0.000002
   Max    0.009371
   Res    0.003402    sqrt( Sum f_i^2 / 3N )
   Max    0.009371    constrained

Stress tensor Voigt[x,y,z,yz,xz,xy] (kbar):        0.54        0.41        0.22       -0.00       -0.00       -0.00
(Free)E + p*V (eV/cell)   -43221.3176
Target enthalpy (eV/cell)   -43221.2165

siesta: Program's energy decomposition (eV):
siesta: Ebs     =     -7624.613241
siesta: Eions   =     56011.441932
siesta: Ena     =      6982.284237
siesta: Ekin    =     20631.725518
siesta: Enl(+so)=     -6318.625605
siesta: Eso(nil)=         0.000000
siesta: Edftu   =         9.385517
siesta: DEna    =       194.006685
siesta: DUscf   =         4.839571
siesta: DUext   =         0.000000
siesta: Ex      =     -8207.094656
siesta: Ec      =      -506.279979
siesta: Exc     =     -8713.374636
siesta: EbV     =         0.000000
siesta: eta*DQ  =         0.000000
siesta: Emadel  =         0.000000
siesta: Emeta   =         0.000000
siesta: Emolmec =         0.000000
siesta: Ekinion =         0.000000
siesta: Eharris =    -43221.200644
siesta: Etot    =    -43221.200644
siesta: FreeEng =    -43221.216531

siesta: Final energy (eV):
siesta:  Band Struct. =   -7624.613241
siesta:       Kinetic =   20631.725518
siesta:       Hartree =   15015.002521
siesta:         Edftu =       9.385517
siesta:      Eso(nil) =       0.000000
siesta:    Ext. field =       0.000000
siesta:         Exch. =   -8207.094656
siesta:         Corr. =    -506.279979
siesta:     Bulk bias =       0.000000
siesta:   Exch.-corr. =   -8713.374636
siesta:  Ion-electron =  -51972.738243
siesta:       Ion-ion =  -18191.201321
siesta:       Ekinion =       0.000000
siesta: D3 dispersion =       0.000000
siesta:         Total =  -43221.200644
siesta:         Fermi =      -4.232776

siesta: Stress tensor (static) (eV/Ang**3):
siesta:     0.000339   -0.000001   -0.000000
siesta:    -0.000001    0.000258   -0.000000
siesta:    -0.000000   -0.000000    0.000139

siesta: Cell volume =        411.848009 Ang**3

siesta: Pressure (static):
siesta:                Solid            Molecule  Units
siesta:          -0.00000267         -0.00000277  Ry/Bohr**3
siesta:          -0.00024534         -0.00025422  eV/Ang**3
siesta:          -0.39308393         -0.40731165  kBar
(Free)E+ p_basis*V_orbitals  =      -43203.920280
(Free)Eharris+ p_basis*V_orbitals  =      -43203.920280

mulliken: Atomic and Orbital Populations:

Species: Nb

Atom      Orb        Charge      Spin       Svec
    1  2 5s        -0.02560   0.04143      0.000  -0.000  -0.041
    1 15 4dxy      -0.01349   0.00320      0.000   0.000   0.003
    1 16 4dyz      -0.07049   0.04437     -0.000   0.000   0.044
    1 17 4dz2      -0.18152   0.04504      0.000   0.000   0.045
    1 18 4dxz      -0.20463   0.08343     -0.000   0.000   0.083
    1 19 4dx2-y2   -0.09218   0.03795      0.000  -0.000   0.038
    1     Total    13.22766   0.71453      0.000  -0.000  -0.715

    2  2 5s        -0.02561   0.04144     -0.000   0.000  -0.041
    2 15 4dxy      -0.01348   0.00320     -0.000   0.000   0.003
    2 16 4dyz      -0.07049   0.04437      0.000   0.000   0.044
    2 17 4dz2      -0.18151   0.04504     -0.000   0.000   0.045
    2 18 4dxz      -0.20463   0.08343      0.000   0.000   0.083
    2 19 4dx2-y2   -0.09218   0.03795     -0.000  -0.000   0.038
    2     Total    13.22766   0.71455     -0.000  -0.000  -0.715

[...]

Total              52.91066   2.85815      0.000  -0.000  -2.858

[...]

Atom      Orb        Charge      Spin       Svec
    5  2 4s        -0.48872   0.00757      0.000  -0.000   0.008
    5 15 3dxy      -0.09354   0.07657      0.000   0.000   0.077
    5 16 3dyz      -0.05347   0.05045      0.000   0.000   0.050
    5 17 3dz2      -0.16639   0.09067      0.000   0.000   0.091
    5 18 3dxz      -0.04311   0.06088      0.000   0.000   0.061
    5 19 3dx2-y2   -0.06211   0.06119      0.000   0.000   0.061
    5     Total    15.34612   3.12505      0.000   0.000   3.125

[...]

    8  2 4s        -0.48871   0.00757      0.000   0.000   0.008
    8 15 3dxy      -0.09354   0.07657      0.000  -0.000   0.077
    8 16 3dyz      -0.05346   0.05045      0.000   0.000   0.050
    8 17 3dz2      -0.16639   0.09067      0.000  -0.000   0.091
    8 18 3dxz      -0.04311   0.06088      0.000  -0.000   0.061
    8 19 3dx2-y2   -0.06211   0.06119      0.000  -0.000   0.061
    8     Total    15.34612   3.12506      0.000  -0.000   3.125

[...]

Species: Te

Atom      Orb        Charge      Spin       Svec
    9     Total    16.22583   0.06929      0.000   0.000  -0.069

   10  8 5px       -0.01906   0.02272     -0.000  -0.000   0.023
   10     Total    16.20038   0.01489      0.000   0.000   0.015

[...]

   12     Total    16.22583   0.06929     -0.000   0.000  -0.069

[...]

   14  8 5px       -0.01906   0.02272      0.000   0.000   0.023
   14     Total    16.20038   0.01488      0.000  -0.000   0.015

[...]

   16     Total    16.22583   0.06929     -0.000   0.000  -0.069

Total             244.00000   9.42445      0.000  -0.000   9.424

Mulliken Atomic Populations:
Atom #   charge [q] valence [e]           S      Sx [e]      Sy [e]      Sz [e]  Species
     1    -0.227665   13.227665    0.714528    0.000001   -0.000001   -0.714528  Nb
     2    -0.227663   13.227663    0.714546   -0.000001   -0.000001   -0.714546  Nb
     3    -0.227666   13.227666    0.714538   -0.000000   -0.000001   -0.714538  Nb
     4    -0.227664   13.227664    0.714538    0.000000   -0.000002   -0.714538  Nb
     5     0.653878   15.346122    3.125049    0.000004    0.000002    3.125049  Fe
     6     0.653877   15.346123    3.125060   -0.000004    0.000001    3.125060  Fe
     7     0.653878   15.346122    3.125050   -0.000002   -0.000001    3.125050  Fe
     8     0.653876   15.346124    3.125060    0.000003   -0.000001    3.125060  Fe
     9    -0.225832   16.225832    0.069288    0.000039    0.000000   -0.069288  Te
    10    -0.200380   16.200380    0.014885    0.000000    0.000000    0.014885  Te
    11    -0.200380   16.200380    0.014885   -0.000000    0.000000    0.014885  Te
    12    -0.225834   16.225834    0.069288   -0.000039    0.000000   -0.069288  Te
    13    -0.200381   16.200381    0.014884   -0.000000    0.000000    0.014884  Te
    14    -0.200381   16.200381    0.014885    0.000000   -0.000000    0.014885  Te
    15    -0.225832   16.225832    0.069290    0.000039    0.000000   -0.069289  Te
    16    -0.225831   16.225831    0.069290   -0.000039    0.000000   -0.069290  Te
 Total    -0.000000                9.424454    0.000000   -0.000004    9.424454

cite: Please see "NbFeTe2.bib" for an exhaustive BiBTeX file.
cite: Please clearly indicate Siesta version in published work: 5.2.0 (Spack) Tag: 5.2.0
cite: This calculation has made use of the following articles
cite: which are encouraged to be cited in a published work.
        Primary SIESTA paper
          DOI: www.doi.org/10.1088/0953-8984/14/11/302
        LDA+U implementation
          DOI: www.doi.org/10.1103/PhysRevB.57.1505
        Spin-orbit coupling (off-site approximation)
          DOI: www.doi.org/10.1088/0953-8984/24/8/086005

>> End of run:  21-JUN-2025   7:07:03
Job completed