 NOTE: Siesta V5 introduces some new defaults for basis-set generation
 NOTE: which might lead to slightly different numerical results.
 NOTE: Please see the manual for full details and compatibility measures.

reinit: Reading from standard input
reinit: Dumping input in INPUT_TMP.69349
************************** Dump of input data file ****************************
SystemName          NbFeTe2 Bulk
SystemLabel         NbFeTe2
NumberOfAtoms       16
NumberOfSpecies     3
LatticeConstant 1 Ang
%block LatticeVectors
        6.344706   -0.000002    0.000000
       -0.000003    7.737341    0.000000
        0.000000    0.000000    8.003319
%endblock LatticeVectors
%block ChemicalSpeciesLabel
  1   41  Nb /work/e89/e89/shreyas/psml_files/Nb.psml
  2   26  Fe /work/e89/e89/shreyas/psml_files/Fe.psml
  3   52  Te /work/e89/e89/shreyas/psml_files/Te.psml
%endblock ChemicalSpeciesLabel
AtomicCoordinatesFormat Fractional
%block AtomicCoordinatesAndAtomicSpecies
    0.49999999    0.50000000    0.29576047   1
   -0.00000003    0.50000001    0.79576014   1
    0.00000000    0.50000001    0.20423985   1
    0.49999998    0.50000002    0.70423954   1
    0.13893816    0.60578707    0.50000000   2
    0.63893848    0.39421265    0.00000001   2
    0.86106182    0.39421295    0.49999997   2
    0.36106155    0.60578739    0.00000001   2
    0.75000001    0.19119272    0.74999976   3
    0.24278264    0.27395142   -0.00000000   3
    0.75721736    0.72604862    0.00000003   3
    0.24999996    0.80880730    0.74999982   3
    0.74278275    0.72604835    0.50000003   3
    0.25721721    0.27395168    0.50000002   3
    0.24999996    0.80880732    0.25000022   3
    0.75000001    0.19119271    0.25000021   3
%endblock AtomicCoordinatesAndAtomicSpecies
XC.functional   GGA
XC.authors      PBE
Spin            spin-orbit
Charge.Mulliken end
%block DM.InitSpin
   5  +  90.  90.
   6  +  90.  90.
   7  +  90.  90.
   8  +  90.  90.
%endblock DM.InitSpin
SCF.Mix                 Hamiltonian
SCF.Mixer.Method        Pulay
SCF.Mixer.History       10
SCF.Mixer.Weight        0.1
SCF.Mixer.Kick          50
SCF.H.Tolerance		0.005 eV
SCF.DM.Tolerance	0.0005
PAO.BasisSize           DZP
PAO.EnergyShift         50 meV
%block DFTU.proj
Fe   1               # number of shells of projectors
n=3    2             #  n, l
  4.5  0.9     # U(eV), J(eV)
  0.0  0.0     # rc, \omega (if zero default values are taken)
%endblock DFTU.proj
DM.UseSaveDM           	T
# Real space grid...
MeshCutoff           150 Ry
%block kgrid_Monkhorst_Pack
  10	0	0    0.0
  0	10	0    0.0
  0	0	10    0.0
%endblock kgrid_Monkhorst_Pack
MD.TypeOfRun            CG
MD.Steps                100
MD.MaxForceTol          0.01 eV/Ang
MD.VariableCell        T
#MD.NaxStressTol		0.05 GPa
Target.Pressure		0.0 GPa
************************** End of input data file *****************************

reinit: -----------------------------------------------------------------------
reinit: System Name: NbFeTe2 Bulk
reinit: -----------------------------------------------------------------------
reinit: System Label: NbFeTe2
reinit: -----------------------------------------------------------------------

NOTE on units for spin output:
{S} is the spin magnetic moment, in units of the Bohr magneton,
assuming a g-factor for the electron spin of exactly 2.
The spin magnetic moment is then numerically equal to the charge inbalance,
in units of electrons, between the spin-up and -down channels.

initatom: Reading input for the pseudopotentials and atomic orbitals ----------
Species number:   1 Atomic number:   41 Label: Nb
Species number:   2 Atomic number:   26 Label: Fe
Species number:   3 Atomic number:   52 Label: Te

Ground state valence configuration (from tables):   5s01  5p00  4d04  4f00
Ground state valence configuration (from tables):   4s02  4p00  3d06  4f00
Ground state valence configuration (from tables):   5s02  5p04  5d00  4f00

---- Processing specs for species: Nb
Reading pseudopotential information in PSML from:
  /work/e89/e89/shreyas/psml_files/Nb.psml
PSML file version: 1.1
GGA--PBE XC_GGA_X_PBE--XC_GGA_C_PBE pb
PSML uuid: 548394d0-44bc-11e8-4eec-b97effbd72e7
Semicore shell(s) with  8 electrons included in the valence for Nb

---- Processing specs for species: Fe
Reading pseudopotential information in PSML from:
  /work/e89/e89/shreyas/psml_files/Fe.psml
PSML file version: 1.1
GGA--PBE XC_GGA_X_PBE--XC_GGA_C_PBE pb
PSML uuid: 89456970-44bf-11e8-4d23-a6a6edf19e30
Semicore shell(s) with  8 electrons included in the valence for Fe

---- Processing specs for species: Te
Reading pseudopotential information in PSML from:
  /work/e89/e89/shreyas/psml_files/Te.psml
PSML file version: 1.1
GGA--PBE XC_GGA_X_PBE--XC_GGA_C_PBE pb
PSML uuid: edaa6890-471a-11e8-6356-ec79ff4cd4ef
Semicore shell(s) with 10 electrons included in the valence for Te

---- Pseudopotential check for Nb

Pseudopotential generated from a fully relativistic atomic calculation
There are spin-orbit semi-local pseudopotentials available

Pseudized shells:
4s( 2.00) rc: 1.51
4p( 6.00) rc: 1.40
4d( 4.00) rc: 1.40
Valence configuration for ps generation: 4s:4p:4d:5s: Total charge:  13.000000
Semicore shell(s): 4s 4p
Fallback to non-perturbative polarization scheme for Nb
Please see the manual if this is not desired in principle

[...]

Pseudized shells:
3s( 2.00) rc: 1.26
3p( 6.00) rc: 1.21
3d( 6.00) rc: 1.57
Valence configuration for ps generation: 3s:3p:3d:4s: Total charge:  16.000000
Semicore shell(s): 3s 3p
Fallback to non-perturbative polarization scheme for Fe
Please see the manual if this is not desired in principle

---- Pseudopotential check for Te

Pseudopotential generated from a fully relativistic atomic calculation
There are spin-orbit semi-local pseudopotentials available

Pseudized shells:
5s( 2.00) rc: 2.27
5p( 4.00) rc: 1.92
4d(10.00) rc: 1.81
Valence configuration for ps generation: 4d:5s:5p: Total charge:  16.000000
Semicore shell(s): 4d
Fallback to non-perturbative polarization scheme for Te
Please see the manual if this is not desired in principle
For Nb, standard SIESTA heuristics set lmxkb to 3
 (one more than the basis l, including polarization orbitals).
Use PS.lmax or PS.KBprojectors blocks to override.
For Fe, standard SIESTA heuristics set lmxkb to 3
 (one more than the basis l, including polarization orbitals).
Use PS.lmax or PS.KBprojectors blocks to override.
For Te, standard SIESTA heuristics set lmxkb to 3
 (one more than the basis l, including polarization orbitals).
Use PS.lmax or PS.KBprojectors blocks to override.
/work/e89/e89/shreyas/psml_files/Nb.psml pseudopotential only contains V_ls up to l=2 -- lmxkb reset.
/work/e89/e89/shreyas/psml_files/Fe.psml pseudopotential only contains V_ls up to l=2 -- lmxkb reset.
/work/e89/e89/shreyas/psml_files/Te.psml pseudopotential only contains V_ls up to l=2 -- lmxkb reset.

<basis_specs>
Nb                   Z=  41    Mass=  92.906        Charge= 0.17977+309
Lmxo=2 Lmxkb= 2    BasisType=split      Semic=T
L=0  Nsemic=1  Cnfigmx=5
          i=1  nzeta=1  polorb=0  (4s)  (semicore shell)
            splnorm:   0.15000
               vcte:    40.000
               rinn:  -0.90000
               qcoe:    0.0000
               qyuk:    0.0000
               qwid:   0.10000E-01
                rcs:    0.0000
            lambdas:    1.0000
          i=2  nzeta=2  polorb=0  (5s)  (to be polarized non-perturbatively)
            splnorm:   0.15000
               vcte:    40.000
               rinn:  -0.90000
               qcoe:    0.0000
               qyuk:    0.0000
               qwid:   0.10000E-01
                rcs:    0.0000      0.0000
            lambdas:    1.0000      1.0000
L=1  Nsemic=1  Cnfigmx=5
          i=1  nzeta=1  polorb=0  (4p)  (semicore shell)
            splnorm:   0.15000
               vcte:    40.000
               rinn:  -0.90000
               qcoe:    0.0000
               qyuk:    0.0000
               qwid:   0.10000E-01
                rcs:    0.0000
            lambdas:    1.0000
          i=2  nzeta=1  polorb=0  (5p)  (non-perturbative polarization shell)
            splnorm:   0.15000
               vcte:    40.000
               rinn:  -0.90000
               qcoe:   0.11198-314
               qyuk:   0.49407-323
               qwid:   0.11582-309
                rcs:    0.0000
            lambdas:    1.0000
L=2  Nsemic=0  Cnfigmx=4
          i=1  nzeta=2  polorb=0  (4d)
            splnorm:   0.15000
               vcte:    40.000
               rinn:  -0.90000
               qcoe:    0.0000
               qyuk:    0.0000
               qwid:   0.10000E-01
                rcs:    0.0000      0.0000
            lambdas:    1.0000      1.0000
L=0  Nkbl=2  erefs: 0.17977+309 0.17977+309
L=1  Nkbl=2  erefs: 0.17977+309 0.17977+309
L=2  Nkbl=1  erefs: 0.17977+309
</basis_specs>

Using PAO.SplitTailNorm
atom: Called for Nb                    (Z =  41)
Maximum radius (at nrval) set to   50.00000 8518

read_vps: Pseudopotential generation method:
read_vps: ONCVPSP-3.Hamann's oncvpsp
Valence charge in pseudo generation:   13.00000

read_vps: Pseudopotential includes a core correction:
read_vps: Pseudo-core for xc-correction

xc_check: Exchange-correlation functional:
xc_check: GGA Perdew, Burke & Ernzerhof 1996
Got Vlocal (oncv-fit) from psml data
Choosing vlocal chloc cutoff:  6.020499
qtot up to nchloc:   12.99995086
atom: Maximum radius for chlocal:    6.02050
atom: Maximum radius for r*vlocal+2*Zval:    6.02050
Reading KB projs from Nb psml data
Using lj projectors in PSML file

PSML: Kleinman-Bylander projectors:
   l= 0   rc=  1.526996   Ekb=  2.679097
   l= 0   rc=  1.526996   Ekb= 25.890388
j- l= 1   rc=  1.421653   Ekb=  1.692988
j+ l= 1   rc=  1.421653   Ekb=  1.492224
j- l= 1   rc=  1.421653   Ekb= 15.596372
j+ l= 1   rc=  1.421653   Ekb= 15.467537
j- l= 2   rc=  1.421653   Ekb=  2.142057
j+ l= 2   rc=  1.421653   Ekb=  2.237418
j- l= 2   rc=  1.421653   Ekb=  6.646060
j+ l= 2   rc=  1.421653   Ekb=  7.445704

PSML: Total number of  Kleinman-Bylander projectors:  34
atom: -------------------------------------------------------------------------

atom: SANKEY-TYPE ORBITALS:
atom: Selected multiple-zeta basis: split

SPLIT: Orbitals with angular momentum L= 0

SPLIT: Basis orbitals for state 4s

SPLIT: PAO cut-off radius determined from an
SPLIT: energy shift=  0.003675 Ry
Split based on tail norm

   izeta = 1
                 lambda =    1.000000
                     rc =    3.312873
                 energy =   -4.284737
                kinetic =    2.120952
    potential(screened) =   -6.405690
       potential(ionic) =  -21.112880

[...]

   izeta = 2
                 rmatch =    6.431940
              splitnorm =    0.150000
                 energy =   -0.189755
                kinetic =    1.098514
    potential(screened) =   -1.288269
       potential(ionic) =  -10.061438

[...]

SPLIT: Basis orbitals for state 4p

[...]

SPLIT: Basis orbitals for state 5p
SPLIT: Non-perturbative polarization orbs for state 5s
SPLIT: rc(1st zeta) (re)set to: 8.9864 (expansion factor: 1.0000)
Split based on tail norm

[...]

SPLIT: Basis orbitals for state 4d

[...]

   izeta = 2
[...]
   scf:   14   -43221.188805   -43221.188823   -43221.206090  0.000928 -4.227406  0.002247
     spin moment: {S} , |S| = {   -0.00008    9.43583    0.00000 }     9.43583
   scf:   15   -43221.188778   -43221.188794   -43221.206063  0.000256 -4.227418  0.002076
     spin moment: {S} , |S| = {   -0.00008    9.43685    0.00000 }     9.43685

[...]

        iscf     Eharris(eV)        E_KS(eV)     FreeEng(eV)     dDmax    Ef(eV) dHmax(eV)
   scf:    1   -43221.108082   -43221.188591   -43221.205682  0.015158 -4.237089  0.113155
     spin moment: {S} , |S| = {   -0.00008    9.45487    0.00000 }     9.45487
   scf:    2   -43220.879532   -43221.086753   -43221.103940  0.012232 -4.185568  0.828938
     spin moment: {S} , |S| = {   -0.00007    9.42738    0.00000 }     9.42738
   scf:    3   -43221.192035   -43221.190717   -43221.207814  0.010647 -4.230343  0.006443
     spin moment: {S} , |S| = {   -0.00008    9.45350    0.00000 }     9.45350
   scf:    4   -43221.190836   -43221.190766   -43221.207858  0.000162 -4.230241  0.004854
     spin moment: {S} , |S| = {   -0.00008    9.45436    0.00000 }     9.45436

[...]

        iscf     Eharris(eV)        E_KS(eV)     FreeEng(eV)     dDmax    Ef(eV) dHmax(eV)
   scf:    1   -43220.399877   -43221.162057   -43221.179969  0.015436 -4.250954  0.416562
     spin moment: {S} , |S| = {   -0.00008    9.36404    0.00000 }     9.36404
   scf:    2   -43218.964316   -43220.459848   -43220.478147  0.023954 -4.166508  3.037359
     spin moment: {S} , |S| = {   -0.00008    9.56952    0.00000 }     9.56952
   scf:    3   -43221.238344   -43221.176534   -43221.194507  0.021348 -4.238705  0.031756
     spin moment: {S} , |S| = {   -0.00008    9.38637    0.00000 }     9.38637
   scf:    4   -43221.177167   -43221.176806   -43221.194782  0.000747 -4.237759  0.025753
     spin moment: {S} , |S| = {   -0.00008    9.38622    0.00000 }     9.38622
   scf:    5   -43221.177332   -43221.177125   -43221.195109  0.001669 -4.236627  0.010841
     spin moment: {S} , |S| = {   -0.00008    9.38491    0.00000 }     9.38491
   scf:    6   -43221.177246   -43221.177170   -43221.195165  0.000266 -4.236332  0.006617
     spin moment: {S} , |S| = {   -0.00008    9.38368    0.00000 }     9.38368
   scf:    7   -43221.177220   -43221.177182   -43221.195183  0.000171 -4.236164  0.005746
     spin moment: {S} , |S| = {   -0.00008    9.38291    0.00000 }     9.38291
   scf:    8   -43221.177196   -43221.177184   -43221.195192  0.000219 -4.236159  0.004682
     spin moment: {S} , |S| = {   -0.00008    9.38231    0.00000 }     9.38231

[...]

        iscf     Eharris(eV)        E_KS(eV)     FreeEng(eV)     dDmax    Ef(eV) dHmax(eV)
   scf:    1   -43221.249929   -43221.190247   -43221.207748  0.003884 -4.228928  0.133737
     spin moment: {S} , |S| = {   -0.00007    9.43261    0.00000 }     9.43261
   scf:    2   -43220.969504   -43221.121288   -43221.138769  0.008842 -4.242338  0.962563
     spin moment: {S} , |S| = {   -0.00015    9.36509    0.00000 }     9.36509
   scf:    3   -43221.202213   -43221.191407   -43221.208909  0.007891 -4.231163  0.016145
     spin moment: {S} , |S| = {   -0.00008    9.42542    0.00000 }     9.42542
   scf:    4   -43221.191416   -43221.191461   -43221.208967  0.000248 -4.231755  0.010947
     spin moment: {S} , |S| = {   -0.00008    9.42517    0.00000 }     9.42517
   scf:    5   -43221.191470   -43221.191492   -43221.209004  0.000267 -4.232227  0.005263
     spin moment: {S} , |S| = {   -0.00008    9.42469    0.00000 }     9.42469
   scf:    6   -43221.191492   -43221.191497   -43221.209014  0.000166 -4.232471  0.003998
     spin moment: {S} , |S| = {   -0.00008    9.42405    0.00000 }     9.42405

[...]

        iscf     Eharris(eV)        E_KS(eV)     FreeEng(eV)     dDmax    Ef(eV) dHmax(eV)
   scf:    1   -43221.149431   -43221.192431   -43221.209867  0.002581 -4.234638  0.080764
     spin moment: {S} , |S| = {   -0.00008    9.42817    0.00000 }     9.42817
   scf:    2   -43221.109711   -43221.165723   -43221.183158  0.005464 -4.227015  0.574709
     spin moment: {S} , |S| = {   -0.00010    9.46878    0.00000 }     9.46878
   scf:    3   -43221.193798   -43221.192859   -43221.210294  0.004865 -4.233307  0.011277
     spin moment: {S} , |S| = {   -0.00008    9.43239    0.00000 }     9.43239
   scf:    4   -43221.192992   -43221.192888   -43221.210320  0.000195 -4.232776  0.006863
     spin moment: {S} , |S| = {   -0.00008    9.43228    0.00000 }     9.43228
   scf:    5   -43221.192963   -43221.192909   -43221.210336  0.000241 -4.232336  0.003495
     spin moment: {S} , |S| = {   -0.00008    9.43224    0.00000 }     9.43224

[...]

cgvc: Finished line minimization    5.  Mean atomic displacement =    0.0038

                        Begin CG opt. move =     12
k-point displ. along   1 input, could be:     0.00    0.50
k-point displ. along   2 input, could be:     0.00    0.50
k-point displ. along   3 input, could be:     0.00    0.50

Time-reversal symmetry not used.

siesta: k-grid: Number of k-points = 1000
siesta: k-points from Monkhorst-Pack grid
siesta: k-cutoff (effective) =    32.071 Ang
siesta: k-point supercell and displacements
siesta: k-grid:    10     0     0      0.000
siesta: k-grid:     0    10     0      0.000
siesta: k-grid:     0     0    10      0.000

superc: Internal auxiliary supercell:     5 x     3 x     5  =      75
superc: Number of atoms, orbitals, and projectors:   1200  22200  40800

[...]

outcell: Cell vector modules (Ang)   :    6.414181    7.794341    8.237897
outcell: Cell angles (23,13,12) (deg):     90.0000     90.0000     90.0000
outcell: Cell volume (Ang**3)        :    411.8480
<dSpData1D:S at geom step 12
  <sparsity:sparsity for geom step 12
    nrows_g=296 nrows=17 sparsity=.2308 nnzs=20221, refcount: 9>
  <dData1D:(new from dSpData1D) n=20221, refcount: 1>
refcount: 1>
new_DM -- step:    13
Re-using DM from previous geometries...
Number of DMs in history: 1
 DM extrapolation coefficients:
1   1.00000
New DM after history re-use:
<dSpData2D:SpM extrapolated using coords
  <sparsity:sparsity for geom step 12
    nrows_g=296 nrows=17 sparsity=.2308 nnzs=20221, refcount: 11>
  <dData2D:(temp array for extrapolation) n=20221 m=8, refcount: 1>
refcount: 1>

InitMesh: MESH = 48 x 60 x 64 = 184320
InitMesh: Mesh cutoff (required, used) =   150.000   154.775 Ry
New grid distribution [1]: sub = 2
New grid distribution [2]: sub = 2
New grid distribution [3]: sub = 2
Setting up quadratic distribution...

        iscf     Eharris(eV)        E_KS(eV)     FreeEng(eV)     dDmax    Ef(eV) dHmax(eV)
   scf:    1   -43221.192760   -43221.193225   -43221.210611  0.010193 -4.231867  0.010982
     spin moment: {S} , |S| = {   -0.00009    9.42412    0.00000 }     9.42412
   scf:    2   -43221.191439   -43221.192413   -43221.209814  0.001226 -4.228896  0.101172
     spin moment: {S} , |S| = {    0.00002    9.42092    0.00000 }     9.42092
   scf:    3   -43221.192684   -43221.193235   -43221.210623  0.001128 -4.231511  0.002074
     spin moment: {S} , |S| = {   -0.00008    9.42361    0.00000 }     9.42361
   scf:    4   -43221.193236   -43221.193235   -43221.210625  0.000034 -4.231494  0.001308
     spin moment: {S} , |S| = {   -0.00008    9.42331    0.00000 }     9.42331

SCF Convergence by DM+H criterion
max |DM_out - DM_in|         :     0.0000335185
max |H_out - H_in|      (eV) :     0.0013081726
SCF cycle converged after 4 iterations

Using DM_out to compute the final energy and forces

siesta: E_KS(eV) =           -43221.1932

siesta: Atomic forces (eV/Ang):
   Tot   -0.000003    0.000011    0.000002
   Max    0.008408
   Res    0.003190    sqrt( Sum f_i^2 / 3N )
   Max    0.008408    constrained

Stress tensor Voigt[x,y,z,yz,xz,xy] (kbar):        0.30        0.35       -0.15       -0.00       -0.00       -0.00
(Free)E + p*V (eV/cell)   -43221.2539
Target enthalpy (eV/cell)   -43221.2106

siesta: Stress tensor (static) (eV/Ang**3):
         0.000187   -0.000001   -0.000000
        -0.000001    0.000220   -0.000000
        -0.000000   -0.000000   -0.000091

siesta: Pressure (static):         -0.16845809  kBar

siesta: Stress tensor (total) (eV/Ang**3):
         0.000187   -0.000001   -0.000000
        -0.000001    0.000220   -0.000000
        -0.000000   -0.000000   -0.000091

siesta: Pressure (total):         -0.16845809  kBar

outcoor: Relaxed atomic coordinates (fractional):
    0.50000011    0.50000015    0.29745564   1       1  Nb
   -0.00000028    0.50000007    0.79745645   1       2  Nb
   -0.00000012    0.49999994    0.20254508   1       3  Nb
    0.50000019    0.49999995    0.70254276   1       4  Nb
    0.13131144    0.61388187    0.50000040   2       5  Fe
    0.63131160    0.38611829   -0.00000037   2       6  Fe
    0.86868862    0.38611821    0.50000004   2       7  Fe
    0.36868806    0.61388182    0.00000012   2       8  Fe
    0.75000030    0.19069662    0.74999973   3       9  Te
    0.23572465    0.27566215    0.00000014   3      10  Te
    0.76427519    0.72433796    0.00000023   3      11  Te
    0.24999981    0.80930262    0.74999977   3      12  Te
    0.73572496    0.72433734    0.49999976   3      13  Te
    0.26427509    0.27566287    0.49999987   3      14  Te
    0.24999952    0.80930378    0.25000031   3      15  Te
    0.75000004    0.19069576    0.25000028   3      16  Te

outcell: Unit cell vectors (Ang):
        6.414181   -0.000002   -0.000000
       -0.000003    7.794341    0.000001
       -0.000001    0.000001    8.237897

outcell: Cell vector modules (Ang)   :    6.414181    7.794341    8.237897
outcell: Cell angles (23,13,12) (deg):     90.0000     90.0000     90.0000
outcell: Cell volume (Ang**3)        :    411.8480

siesta: Program's energy decomposition (eV):
siesta: Ebs     =     -7624.828714
siesta: Eions   =     56011.441932
siesta: Ena     =      6982.284241
siesta: Ekin    =     20631.562890
siesta: Enl(+so)=     -6318.578563
siesta: Eso(nil)=         0.000000
siesta: Edftu   =         9.392864
siesta: DEna    =       194.097202
siesta: DUscf   =         4.838890
siesta: DUext   =         0.000000
siesta: Ex      =     -8207.068544
siesta: Ec      =      -506.280282
siesta: Exc     =     -8713.348826
siesta: EbV     =         0.000000
siesta: eta*DQ  =         0.000000
siesta: Emadel  =         0.000000
siesta: Emeta   =         0.000000
siesta: Emolmec =         0.000000
siesta: Ekinion =         0.000000
siesta: Eharris =    -43221.193236
siesta: Etot    =    -43221.193235
siesta: FreeEng =    -43221.210625

siesta: Final energy (eV):
siesta:  Band Struct. =   -7624.828714
siesta:       Kinetic =   20631.562890
siesta:       Hartree =   15014.791666
siesta:         Edftu =       9.392864
siesta:      Eso(nil) =       0.000000
siesta:    Ext. field =       0.000000
siesta:         Exch. =   -8207.068544
siesta:         Corr. =    -506.280282
siesta:     Bulk bias =       0.000000
siesta:   Exch.-corr. =   -8713.348826
siesta:  Ion-electron =  -51972.390947
siesta:       Ion-ion =  -18191.200883
siesta:       Ekinion =       0.000000
siesta: D3 dispersion =       0.000000
siesta:         Total =  -43221.193235
siesta:         Fermi =      -4.231494

siesta: Stress tensor (static) (eV/Ang**3):
siesta:     0.000187   -0.000001   -0.000000
siesta:    -0.000001    0.000220   -0.000000
siesta:    -0.000000   -0.000000   -0.000091

siesta: Constrained stress tensor (static) (eV/Ang**3):
siesta:     0.000187   -0.000001   -0.000000
siesta:    -0.000001    0.000220   -0.000000
siesta:    -0.000000   -0.000000   -0.000091

siesta: Cell volume =        411.848018 Ang**3

siesta: Pressure (static):
siesta:                Solid            Molecule  Units
siesta:          -0.00000115         -0.00000100  Ry/Bohr**3
siesta:          -0.00010514         -0.00009163  eV/Ang**3
siesta:          -0.16845809         -0.14681461  kBar
(Free)E+ p_basis*V_orbitals  =      -43203.914374
(Free)Eharris+ p_basis*V_orbitals  =      -43203.914375

mulliken: Atomic and Orbital Populations:

Species: Nb

Atom      Orb        Charge      Spin       Svec
    1  2 5s        -0.02563   0.04140      0.000  -0.041   0.000
    1 15 4dxy      -0.01382   0.00333     -0.001   0.003  -0.000
    1 16 4dyz      -0.07069   0.04453     -0.000   0.045   0.000
    1 17 4dz2      -0.18153   0.04514     -0.001   0.045  -0.000
    1 18 4dxz      -0.20484   0.08365      0.000   0.084  -0.000
    1 19 4dx2-y2   -0.09230   0.03772      0.001   0.038  -0.000
    1     Total    13.22773   0.71521     -0.002  -0.715   0.000

    2  2 5s        -0.02563   0.04140     -0.000  -0.041   0.000
    2 15 4dxy      -0.01382   0.00333      0.001   0.003  -0.000
    2 16 4dyz      -0.07068   0.04453      0.000   0.045   0.000
    2 17 4dz2      -0.18152   0.04514      0.001   0.045  -0.000
    2 18 4dxz      -0.20484   0.08365     -0.000   0.084  -0.000
    2 19 4dx2-y2   -0.09230   0.03772     -0.001   0.038   0.000
    2     Total    13.22773   0.71521      0.002  -0.715   0.000

[...]

Total              52.91092   2.86084      0.000  -2.861   0.000

[...]

Atom      Orb        Charge      Spin       Svec
    5  2 4s        -0.48874   0.00766     -0.000   0.008   0.000
    5 15 3dxy      -0.09333   0.07663     -0.001   0.077  -0.000
    5 16 3dyz      -0.05342   0.05061      0.001   0.051  -0.000
    5 17 3dz2      -0.16608   0.09049      0.000   0.090  -0.000
    5 18 3dxz      -0.04324   0.06110     -0.000   0.061  -0.000
    5 19 3dx2-y2   -0.06205   0.06129      0.001   0.061   0.000
    5     Total    15.34612   3.12616      0.011   3.126  -0.000

[...]

    8  2 4s        -0.48873   0.00766      0.000   0.008  -0.000
    8 15 3dxy      -0.09333   0.07663      0.001   0.077  -0.000
    8 16 3dyz      -0.05342   0.05061     -0.001   0.051  -0.000
    8 17 3dz2      -0.16607   0.09049     -0.000   0.090   0.000
    8 18 3dxz      -0.04324   0.06110      0.000   0.061  -0.000
    8 19 3dx2-y2   -0.06204   0.06129     -0.001   0.061  -0.000
    8     Total    15.34613   3.12616     -0.011   3.126  -0.000

[...]

Species: Te

Atom      Orb        Charge      Spin       Svec
    9     Total    16.22584   0.06924      0.000  -0.069   0.000

   10  8 5px       -0.01917   0.02244     -0.001   0.022   0.000
   10     Total    16.20030   0.01452     -0.003   0.014   0.000

[...]

   12     Total    16.22584   0.06924      0.000  -0.069  -0.000

[...]

   14  8 5px       -0.01917   0.02244      0.001   0.022  -0.000
   14     Total    16.20030   0.01452      0.003   0.014  -0.000

[...]

   16     Total    16.22584   0.06924      0.000  -0.069  -0.000

Total             244.00000   9.42331     -0.000   9.423   0.000

Mulliken Atomic Populations:
Atom #   charge [q] valence [e]           S      Sx [e]      Sy [e]      Sz [e]  Species
     1    -0.227732   13.227732    0.715207   -0.001655   -0.715205    0.000001  Nb
     2    -0.227728   13.227728    0.715214    0.001669   -0.715212    0.000001  Nb
     3    -0.227738   13.227738    0.715208    0.001668   -0.715206    0.000001  Nb
     4    -0.227723   13.227723    0.715214   -0.001656   -0.715212    0.000001  Nb
     5     0.653875   15.346125    3.126161    0.010658    3.126143   -0.000000  Fe
     6     0.653867   15.346133    3.126163   -0.010712    3.126145    0.000000  Fe
     7     0.653875   15.346125    3.126162    0.010659    3.126144   -0.000000  Fe
     8     0.653866   15.346134    3.126163   -0.010711    3.126144   -0.000000  Fe
     9    -0.225842   16.225842    0.069236    0.000001   -0.069236    0.000000  Te
    10    -0.200300   16.200300    0.014522   -0.003353    0.014130    0.000000  Te
    11    -0.200301   16.200301    0.014522   -0.003353    0.014130   -0.000000  Te
    12    -0.225842   16.225842    0.069236    0.000001   -0.069236   -0.000000  Te
    13    -0.200298   16.200298    0.014521    0.003352    0.014129    0.000000  Te
    14    -0.200298   16.200298    0.014522    0.003352    0.014130   -0.000000  Te
    15    -0.225841   16.225841    0.069238    0.000001   -0.069238    0.000000  Te
    16    -0.225841   16.225841    0.069238    0.000001   -0.069238   -0.000000  Te
 Total    -0.000000                9.423312   -0.000081    9.423312    0.000002

cite: Please see "NbFeTe2.bib" for an exhaustive BiBTeX file.
cite: Please clearly indicate Siesta version in published work: 5.2.0 (Spack) Tag: 5.2.0
cite: This calculation has made use of the following articles
cite: which are encouraged to be cited in a published work.
        Primary SIESTA paper
          DOI: www.doi.org/10.1088/0953-8984/14/11/302
        LDA+U implementation
          DOI: www.doi.org/10.1103/PhysRevB.57.1505
        Spin-orbit coupling (off-site approximation)
          DOI: www.doi.org/10.1088/0953-8984/24/8/086005

>> End of run:  19-JUN-2025  23:32:37
Job completed